% 02_d_20_5.dzn

H = 200;
n_tareas = 20;
n_recursos = 5;
p = [2, 7, 13, 23, 24, 30, 29, 19, 24, 24, 12, 21, 12, 26, 17, 14, 11, 13, 22, 6];
r = [5, 5, 4, 4, 1, 1, 1, 1, 3, 2, 4, 4, 1, 3, 5, 1, 3, 3, 4, 5];